Gurobi 12.0.1:   lim:time = 28800
  tech:threads = 2
  mip:bestbound = 1
Set parameter LogToConsole to value 1
  tech:outlev = 1
Set parameter InfUnbdInfo to value 1
Gurobi Optimizer version 12.0.1 build v12.0.1rc0 (win64 - Windows 11.0 (26100.2))

CPU model: Intel(R) Xeon(R) Silver 4208 CPU @ 2.10GHz, instruction set [SSE2|AVX|AVX2|AVX512]
Thread count: 16 physical cores, 32 logical processors, using up to 2 threads

Non-default parameters:
TimeLimit  28800
InfUnbdInfo  1
Threads  2

Optimize a model with 221568 rows, 86318 columns and 3022990 nonzeros
Model fingerprint: 0x54ed8639
Model has 21630 quadratic objective terms
Model has 31630 quadratic constraints
Model has 100 simple general constraints
  100 MAX
Variable types: 1671 continuous, 84647 integer (0 binary)
Coefficient statistics:
  Matrix range     [1e+00, 1e+03]
  QMatrix range    [6e-01, 1e+02]
  QLMatrix range   [1e+00, 1e+03]
  Objective range  [1e+01, 4e+04]
  QObjective range [2e+02, 8e+04]
  Bounds range     [1e+00, 1e+03]
  RHS range        [1e+00, 2e+03]
  QRHS range       [2e+02, 1e+03]
Presolve removed 32706 rows and 11760 columns (presolve time = 5s)...
Presolve removed 32806 rows and 11861 columns (presolve time = 10s)...
Presolve removed 35704 rows and 11861 columns (presolve time = 15s)...
Presolve removed 35704 rows and 11861 columns (presolve time = 20s)...
Presolve removed 44020 rows and 11961 columns (presolve time = 25s)...
Presolve removed 22090 rows and 11578 columns
Presolve time: 30.25s

Explored 0 nodes (0 simplex iterations) in 30.51 seconds (29.13 work units)
Thread count was 1 (of 32 available processors)

Solution count 0

Best objective -, best bound -, gap -
Gurobi 12.0.1: Call failed: 'GRBoptimize(model())' with code 10001,
Gurobi message: Out of memory
Error at _cmdno 6 executing "printf" command
(file C:\Users\ma003\Desktop\shan-ampl-runner\ME\runfiles\data_100\RC204-100.run, line 36, offset 764):

	can't open "ampl_outputs/data_100/RC204-100.txt"
